10 10 4

0 215 361 155 235 128 422 304 466 239 
480 0 206 343 311 191 239 194 346 174 
240 175 0 304 115 155 484 257 161 58 
79 306 373 0 142 471 440 248 412 68 
376 422 484 114 0 402 396 164 419 293 
109 319 139 440 59 0 471 450 331 332 
433 87 444 441 324 249 0 70 416 426 
216 370 338 234 246 259 425 0 66 367 
320 387 492 320 203 311 409 142 0 76 
379 92 357 417 231 151 360 172 425 0 

103 0 3
103 1 5
103 2 5
103 3 4
103 4 2
103 5 6
103 6 8
103 7 1
103 8 7
103 9 3

